c NeuroCodeBench 2.0 CNF formula with verdict Unsat
p cnf 7 33
-1 3 7 6 5 0
1 -6 7 2 5 3 0
1 6 3 0
-1 3 7 6 -5 -4 0
-1 3 7 -6 -5 -2 -4 0
-1 3 7 -6 -5 2 0
-1 -3 5 7 2 0
1 6 -3 -4 5 0
-1 -3 -5 -6 4 0
1 -6 7 2 -5 -3 0
-1 -3 5 -7 -4 0
-1 3 7 6 -5 4 2 0
-1 3 7 -6 5 -4 0
-1 3 7 -6 -5 -2 4 0
1 -6 7 2 -5 3 0
-1 -3 5 7 -2 0
1 6 -3 -4 -5 0
1 -6 7 -2 4 -3 0
1 -6 7 -2 4 3 0
1 -6 -7 -4 0
1 6 -3 4 5 0
-1 -3 -5 -6 -4 2 0
1 -6 7 -2 -4 5 0
-1 3 7 6 -5 4 -2 0
-1 3 -7 0
-1 -3 5 -7 4 0
-1 -3 -5 6 0
-1 3 7 -6 5 4 0
1 6 -3 4 -5 0
1 -6 7 -2 -4 -5 0
-1 -3 -5 -6 -4 -2 0
1 -6 -7 4 0
1 -6 7 2 5 -3 0
